language ESSENCE' 1.0
letting lastdx=87
letting cage be [
[1,7,12,0,0, 0,0, 0,0, 0,0],
[40,16,15,16,14,15,14,14,14,14,15],
[41,2,2,2,3,2,4,3,4,0,0],
[24,9,10,8,10,0,0, 0,0, 0,0],
[12,12,1,11,1,11,2,0,0, 0,0],
[12,10,2,0,0, 0,0, 0,0, 0,0],
[10,9,1,10,1,0,0, 0,0, 0,0],
[41,11,3,10,3,9,3,8,3,0,0],
[6,14,3,0,0, 0,0, 0,0, 0,0],
[11,10,5,0,0, 0,0, 0,0, 0,0],
[20,10,11,10,10,10,9,11,9,11,8],
[8,4,2,0,0, 0,0, 0,0, 0,0],
[49,5,7,5,8,5,9,4,9,4,8],
[51,8,16,8,15,7,15,6,15,0,0],
[2,10,15,0,0, 0,0, 0,0, 0,0],
[23,8,13,8,14,9,14,9,13,0,0],
[13,6,7,0,0, 0,0, 0,0, 0,0],
[6,3,13,0,0, 0,0, 0,0, 0,0],
[8,13,5,0,0, 0,0, 0,0, 0,0],
[30,3,3,3,2,3,1,4,1,5,1],
[14,1,5,1,4,0,0, 0,0, 0,0],
[50,2,13,2,14,1,14,1,15,1,16],
[37,6,9,7,9,7,10,7,11,0,0],
[33,15,1,15,2,14,2,0,0, 0,0],
[43,2,10,3,10,4,10,5,10,5,11],
[33,6,11,6,10,6,12,6,13,0,0],
[39,12,6,13,6,14,6,15,6,0,0],
[28,14,13,15,13,15,12,15,11,0,0],
[28,4,5,5,5,5,6,0,0, 0,0],
[32,12,14,11,14,10,14,10,13,0,0],
[16,10,7,0,0, 0,0, 0,0, 0,0],
[55,12,12,11,12,11,11,11,10,12,10],
[25,6,16,7,16,5,16,4,16,0,0],
[16,13,7,12,7,0,0, 0,0, 0,0],
[16,14,4,0,0, 0,0, 0,0, 0,0],
[39,2,9,3,9,3,8,3,7,2,7],
[17,9,16,9,15,0,0, 0,0, 0,0],
[43,15,4,15,5,14,5,16,5,16,6],
[18,9,12,10,12,0,0, 0,0, 0,0],
[1,5,14,0,0, 0,0, 0,0, 0,0],
[25,1,7,1,8,2,8,0,0, 0,0],
[37,5,15,4,15,3,15,3,14,0,0],
[21,16,16,15,16,15,15,0,0, 0,0],
[51,13,15,13,14,13,13,12,13,11,13],
[16,12,11,13,11,0,0, 0,0, 0,0],
[42,9,6,10,6,11,6,11,7,11,5],
[6,7,4,0,0, 0,0, 0,0, 0,0],
[40,3,12,2,12,2,11,3,11,0,0],
[3,12,2,0,0, 0,0, 0,0, 0,0],
[14,4,4,0,0, 0,0, 0,0, 0,0],
[25,1,2,1,3,0,0, 0,0, 0,0],
[36,7,3,6,3,5,3,4,3,0,0],
[13,8,6,8,7,7,7,0,0, 0,0],
[36,16,2,16,1,16,3,15,3,16,4],
[21,10,8,9,8,9,7,0,0, 0,0],
[38,7,1,6,1,6,2,5,2,0,0],
[23,14,10,15,10,15,9,0,0, 0,0],
[8,12,15,0,0, 0,0, 0,0, 0,0],
[39,16,13,16,12,16,11,16,10,16,9],
[21,14,12,13,12,14,11,0,0, 0,0],
[27,13,16,14,16,0,0, 0,0, 0,0],
[22,13,10,13,9,0,0, 0,0, 0,0],
[17,2,1,1,1,0,0, 0,0, 0,0],
[29,13,3,12,3,13,4,0,0, 0,0],
[25,8,11,8,12,9,11,0,0, 0,0],
[14,16,7,0,0, 0,0, 0,0, 0,0],
[32,11,15,11,16,10,16,12,16,0,0],
[14,14,9,0,0, 0,0, 0,0, 0,0],
[9,4,6,4,7,0,0, 0,0, 0,0],
[30,8,8,7,8,6,8,0,0, 0,0],
[12,3,16,0,0, 0,0, 0,0, 0,0],
[9,3,6,0,0, 0,0, 0,0, 0,0],
[5,7,2,0,0, 0,0, 0,0, 0,0],
[21,1,12,1,13,1,11,0,0, 0,0],
[42,1,6,2,6,2,5,3,5,0,0],
[11,1,9,1,10,0,0, 0,0, 0,0],
[5,2,15,2,16,0,0, 0,0, 0,0],
[47,4,11,4,12,4,13,4,14,0,0],
[24,5,12,5,13,0,0, 0,0, 0,0],
[28,6,14,7,14,7,13,0,0, 0,0],
[22,7,5,7,6,0,0, 0,0, 0,0],
[32,8,1,8,2,9,2,0,0, 0,0],
[7,8,4,0,0, 0,0, 0,0, 0,0],
[24,8,5,9,5,9,4,0,0, 0,0],
[27,8,9,9,9,0,0, 0,0, 0,0],
[30,12,8,12,9,13,8,14,8,14,7],
[23,13,1,13,2,14,1,0,0, 0,0],
[23,15,7,15,8,16,8,0,0, 0,0]
]
